784 1512
1 2 1
1 29 1
2 3 2
2 30 5
3 4 5
3 31 1
4 5 3
4 32 5
5 6 2
5 33 1
6 7 2
6 34 5
7 8 3
7 35 4
8 9 5
8 36 3
9 10 3
9 37 1
10 11 2
10 38 5
11 12 4
11 39 3
12 13 3
12 40 1
13 14 1
13 41 4
14 15 4
14 42 2
15 16 5
15 43 1
16 17 1
16 44 3
17 18 2
17 45 4
18 19 3
18 46 4
19 20 4
19 47 2
20 21 1
20 48 2
21 22 4
21 49 1
22 23 1
22 50 3
23 24 3
23 51 5
24 25 5
24 52 5
25 26 5
25 53 5
26 27 2
26 54 5
27 28 2
27 55 1
28 56 1
29 30 3
29 57 2
30 31 1
30 58 1
31 32 3
31 59 5
32 33 4
32 60 3
33 34 3
33 61 3
34 35 5
34 62 5
35 36 2
35 63 2
36 37 3
36 64 3
37 38 4
37 65 5
38 39 2
38 66 3
39 40 5
39 67 2
40 41 4
40 68 2
41 42 5
41 69 5
42 43 1
42 70 4
43 44 4
43 71 5
44 45 1
44 72 4
45 46 4
45 73 3
46 47 4
46 74 5
47 48 4
47 75 4
48 49 2
48 76 1
49 50 5
49 77 1
50 51 4
50 78 3
51 52 1
51 79 4
52 53 4
52 80 5
53 54 5
53 81 1
54 55 1
54 82 3
55 56 4
55 83 3
56 84 2
57 58 4
57 85 5
58 59 4
58 86 5
59 60 3
59 87 5
60 61 1
60 88 1
61 62 3
61 89 5
62 63 4
62 90 1
63 64 5
63 91 3
64 65 2
64 92 5
65 66 3
65 93 3
66 67 2
66 94 4
67 68 2
67 95 1
68 69 3
68 96 1
69 70 2
69 97 4
70 71 3
70 98 3
71 72 3
71 99 5
72 73 5
72 100 1
73 74 3
73 101 3
74 75 2
74 102 5
75 76 3
75 103 1
76 77 2
76 104 3
77 78 3
77 105 3
78 79 2
78 106 4
79 80 4
79 107 4
80 81 5
80 108 1
81 82 2
81 109 2
82 83 4
82 110 5
83 84 2
83 111 4
84 112 3
85 86 5
85 113 5
86 87 5
86 114 4
87 88 2
87 115 4
88 89 3
88 116 4
89 90 5
89 117 3
90 91 2
90 118 4
91 92 1
91 119 2
92 93 3
92 120 2
93 94 5
93 121 4
94 95 1
94 122 3
95 96 1
95 123 2
96 97 3
96 124 1
97 98 3
97 125 2
98 99 5
98 126 4
99 100 1
99 127 1
100 101 4
100 128 3
101 102 1
101 129 2
102 103 2
102 130 2
103 104 4
103 131 1
104 105 3
104 132 2
105 106 5
105 133 3
106 107 5
106 134 1
107 108 4
107 135 2
108 109 2
108 136 3
109 110 1
109 137 3
110 111 5
110 138 3
111 112 2
111 139 5
112 140 4
113 114 5
113 141 2
114 115 1
114 142 5
115 116 1
115 143 2
116 117 3
116 144 5
117 118 4
117 145 2
118 119 1
118 146 4
119 120 5
119 147 2
120 121 3
120 148 3
121 122 4
121 149 1
122 123 5
122 150 3
123 124 1
123 151 2
124 125 5
124 152 2
125 126 4
125 153 1
126 127 5
126 154 5
127 128 5
127 155 5
128 129 1
128 156 1
129 130 2
129 157 3
130 131 3
130 158 1
131 132 2
131 159 1
132 133 5
132 160 3
133 134 4
133 161 1
134 135 2
134 162 4
135 136 4
135 163 1
136 137 2
136 164 3
137 138 1
137 165 4
138 139 3
138 166 5
139 140 1
139 167 3
140 168 1
141 142 5
141 169 5
142 143 4
142 170 5
143 144 5
143 171 1
144 145 4
144 172 1
145 146 3
145 173 3
146 147 5
146 174 5
147 148 4
147 175 3
148 149 3
148 176 1
149 150 4
149 177 3
150 151 2
150 178 1
151 152 5
151 179 2
152 153 5
152 180 5
153 154 2
153 181 1
154 155 2
154 182 2
155 156 3
155 183 4
156 157 1
156 184 1
157 158 1
157 185 1
158 159 4
158 186 5
159 160 4
159 187 2
160 161 3
160 188 3
161 162 5
161 189 5
162 163 1
162 190 1
163 164 5
163 191 1
164 165 2
164 192 3
165 166 2
165 193 3
166 167 2
166 194 3
167 168 5
167 195 5
168 196 1
169 170 5
169 197 1
170 171 2
170 198 4
171 172 2
171 199 4
172 173 1
172 200 4
173 174 5
173 201 5
174 175 2
174 202 5
175 176 2
175 203 5
176 177 5
176 204 3
177 178 1
177 205 1
178 179 4
178 206 3
179 180 1
179 207 3
180 181 5
180 208 3
181 182 5
181 209 1
182 183 5
182 210 4
183 184 1
183 211 4
184 185 2
184 212 5
185 186 1
185 213 4
186 187 5
186 214 1
187 188 5
187 215 1
188 189 1
188 216 2
189 190 2
189 217 2
190 191 4
190 218 2
191 192 4
191 219 1
192 193 5
192 220 3
193 194 3
193 221 5
194 195 5
194 222 5
195 196 1
195 223 2
196 224 1
197 198 3
197 225 1
198 199 4
198 226 4
199 200 5
199 227 5
200 201 1
200 228 3
201 202 1
201 229 5
202 203 3
202 230 3
203 204 1
203 231 2
204 205 2
204 232 3
205 206 5
205 233 1
206 207 5
206 234 4
207 208 3
207 235 3
208 209 5
208 236 4
209 210 1
209 237 2
210 211 2
210 238 1
211 212 1
211 239 2
212 213 5
212 240 4
213 214 2
213 241 2
214 215 3
214 242 3
215 216 2
215 243 1
216 217 5
216 244 3
217 218 4
217 245 2
218 219 5
218 246 4
219 220 5
219 247 1
220 221 1
220 248 5
221 222 4
221 249 5
222 223 1
222 250 5
223 224 5
223 251 5
224 252 4
225 226 5
225 253 3
226 227 5
226 254 3
227 228 1
227 255 1
228 229 3
228 256 2
229 230 5
229 257 4
230 231 2
230 258 4
231 232 1
231 259 1
232 233 2
232 260 5
233 234 1
233 261 4
234 235 4
234 262 3
235 236 2
235 263 1
236 237 4
236 264 1
237 238 5
237 265 4
238 239 3
238 266 1
239 240 2
239 267 2
240 241 2
240 268 1
241 242 4
241 269 3
242 243 2
242 270 3
243 244 1
243 271 5
244 245 1
244 272 2
245 246 1
245 273 1
246 247 5
246 274 2
247 248 4
247 275 2
248 249 4
248 276 4
249 250 4
249 277 4
250 251 5
250 278 4
251 252 2
251 279 3
252 280 5
253 254 1
253 281 1
254 255 2
254 282 4
255 256 4
255 283 3
256 257 3
256 284 4
257 258 5
257 285 3
258 259 3
258 286 2
259 260 3
259 287 2
260 261 4
260 288 5
261 262 1
261 289 3
262 263 4
262 290 3
263 264 2
263 291 1
264 265 3
264 292 2
265 266 3
265 293 3
266 267 5
266 294 1
267 268 2
267 295 3
268 269 5
268 296 2
269 270 3
269 297 1
270 271 2
270 298 5
271 272 4
271 299 4
272 273 5
272 300 1
273 274 1
273 301 3
274 275 5
274 302 3
275 276 3
275 303 4
276 277 2
276 304 5
277 278 5
277 305 4
278 279 4
278 306 5
279 280 2
279 307 2
280 308 4
281 282 4
281 309 5
282 283 2
282 310 3
283 284 1
283 311 4
284 285 3
284 312 5
285 286 4
285 313 1
286 287 3
286 314 4
287 288 2
287 315 2
288 289 5
288 316 5
289 290 5
289 317 3
290 291 2
290 318 3
291 292 3
291 319 3
292 293 2
292 320 5
293 294 4
293 321 2
294 295 3
294 322 4
295 296 2
295 323 3
296 297 5
296 324 4
297 298 4
297 325 1
298 299 1
298 326 4
299 300 4
299 327 4
300 301 4
300 328 5
301 302 2
301 329 3
302 303 4
302 330 2
303 304 2
303 331 3
304 305 1
304 332 3
305 306 1
305 333 3
306 307 2
306 334 2
307 308 4
307 335 1
308 336 1
309 310 2
309 337 2
310 311 2
310 338 3
311 312 4
311 339 2
312 313 3
312 340 2
313 314 3
313 341 5
314 315 1
314 342 1
315 316 5
315 343 5
316 317 2
316 344 4
317 318 2
317 345 3
318 319 1
318 346 4
319 320 2
319 347 2
320 321 1
320 348 3
321 322 1
321 349 5
322 323 3
322 350 2
323 324 3
323 351 5
324 325 4
324 352 5
325 326 1
325 353 3
326 327 4
326 354 3
327 328 2
327 355 4
328 329 2
328 356 2
329 330 3
329 357 5
330 331 5
330 358 1
331 332 3
331 359 4
332 333 4
332 360 4
333 334 5
333 361 3
334 335 5
334 362 1
335 336 1
335 363 5
336 364 1
337 338 3
337 365 4
338 339 5
338 366 1
339 340 4
339 367 3
340 341 5
340 368 1
341 342 4
341 369 1
342 343 4
342 370 4
343 344 1
343 371 3
344 345 2
344 372 3
345 346 4
345 373 3
346 347 5
346 374 2
347 348 4
347 375 2
348 349 2
348 376 2
349 350 2
349 377 5
350 351 4
350 378 2
351 352 4
351 379 2
352 353 2
352 380 1
353 354 4
353 381 2
354 355 3
354 382 4
355 356 3
355 383 4
356 357 4
356 384 2
357 358 2
357 385 4
358 359 4
358 386 2
359 360 2
359 387 5
360 361 3
360 388 4
361 362 2
361 389 5
362 363 3
362 390 5
363 364 4
363 391 3
364 392 4
365 366 1
365 393 3
366 367 3
366 394 5
367 368 2
367 395 1
368 369 1
368 396 1
369 370 2
369 397 4
370 371 4
370 398 1
371 372 3
371 399 4
372 373 2
372 400 4
373 374 2
373 401 5
374 375 3
374 402 4
375 376 5
375 403 4
376 377 4
376 404 5
377 378 2
377 405 4
378 379 4
378 406 5
379 380 3
379 407 5
380 381 3
380 408 3
381 382 3
381 409 1
382 383 3
382 410 4
383 384 3
383 411 3
384 385 3
384 412 5
385 386 4
385 413 1
386 387 4
386 414 5
387 388 4
387 415 2
388 389 3
388 416 3
389 390 2
389 417 3
390 391 2
390 418 5
391 392 1
391 419 2
392 420 4
393 394 2
393 421 5
394 395 1
394 422 1
395 396 2
395 423 4
396 397 5
396 424 3
397 398 5
397 425 2
398 399 1
398 426 2
399 400 2
399 427 3
400 401 3
400 428 4
401 402 1
401 429 1
402 403 3
402 430 3
403 404 2
403 431 2
404 405 3
404 432 1
405 406 5
405 433 2
406 407 2
406 434 4
407 408 3
407 435 3
408 409 2
408 436 3
409 410 4
409 437 4
410 411 2
410 438 4
411 412 4
411 439 5
412 413 2
412 440 4
413 414 5
413 441 5
414 415 2
414 442 1
415 416 2
415 443 2
416 417 2
416 444 2
417 418 3
417 445 2
418 419 3
418 446 5
419 420 2
419 447 5
420 448 1
421 422 2
421 449 1
422 423 2
422 450 5
423 424 1
423 451 4
424 425 2
424 452 5
425 426 4
425 453 5
426 427 4
426 454 5
427 428 5
427 455 3
428 429 5
428 456 4
429 430 3
429 457 2
430 431 2
430 458 5
431 432 1
431 459 3
432 433 2
432 460 1
433 434 2
433 461 5
434 435 4
434 462 4
435 436 4
435 463 4
436 437 2
436 464 4
437 438 2
437 465 2
438 439 4
438 466 2
439 440 2
439 467 2
440 441 2
440 468 3
441 442 5
441 469 4
442 443 1
442 470 2
443 444 3
443 471 2
444 445 2
444 472 4
445 446 4
445 473 3
446 447 4
446 474 4
447 448 5
447 475 4
448 476 2
449 450 5
449 477 4
450 451 5
450 478 3
451 452 3
451 479 2
452 453 1
452 480 3
453 454 5
453 481 3
454 455 2
454 482 3
455 456 2
455 483 1
456 457 4
456 484 2
457 458 2
457 485 4
458 459 1
458 486 4
459 460 3
459 487 5
460 461 1
460 488 2
461 462 4
461 489 5
462 463 1
462 490 3
463 464 5
463 491 4
464 465 4
464 492 1
465 466 2
465 493 2
466 467 1
466 494 3
467 468 2
467 495 3
468 469 5
468 496 2
469 470 5
469 497 1
470 471 1
470 498 4
471 472 1
471 499 2
472 473 2
472 500 2
473 474 2
473 501 5
474 475 5
474 502 3
475 476 3
475 503 2
476 504 4
477 478 4
477 505 1
478 479 4
478 506 5
479 480 2
479 507 1
480 481 2
480 508 1
481 482 4
481 509 3
482 483 5
482 510 1
483 484 5
483 511 4
484 485 4
484 512 3
485 486 4
485 513 4
486 487 3
486 514 2
487 488 4
487 515 5
488 489 1
488 516 5
489 490 1
489 517 2
490 491 5
490 518 1
491 492 2
491 519 3
492 493 3
492 520 3
493 494 1
493 521 1
494 495 5
494 522 1
495 496 3
495 523 3
496 497 1
496 524 2
497 498 3
497 525 2
498 499 5
498 526 4
499 500 5
499 527 2
500 501 5
500 528 3
501 502 5
501 529 5
502 503 4
502 530 3
503 504 2
503 531 1
504 532 5
505 506 5
505 533 2
506 507 1
506 534 2
507 508 1
507 535 1
508 509 4
508 536 1
509 510 3
509 537 1
510 511 2
510 538 2
511 512 2
511 539 2
512 513 2
512 540 1
513 514 3
513 541 2
514 515 1
514 542 5
515 516 4
515 543 2
516 517 2
516 544 4
517 518 1
517 545 3
518 519 2
518 546 3
519 520 3
519 547 5
520 521 2
520 548 3
521 522 2
521 549 5
522 523 5
522 550 3
523 524 4
523 551 5
524 525 1
524 552 4
525 526 1
525 553 2
526 527 4
526 554 4
527 528 5
527 555 4
528 529 3
528 556 2
529 530 1
529 557 2
530 531 1
530 558 3
531 532 1
531 559 2
532 560 4
533 534 5
533 561 4
534 535 5
534 562 4
535 536 3
535 563 2
536 537 5
536 564 2
537 538 1
537 565 5
538 539 1
538 566 5
539 540 1
539 567 5
540 541 4
540 568 3
541 542 1
541 569 5
542 543 5
542 570 1
543 544 4
543 571 2
544 545 1
544 572 2
545 546 1
545 573 2
546 547 2
546 574 5
547 548 5
547 575 4
548 549 1
548 576 2
549 550 1
549 577 5
550 551 3
550 578 2
551 552 4
551 579 1
552 553 4
552 580 2
553 554 1
553 581 3
554 555 4
554 582 5
555 556 1
555 583 3
556 557 5
556 584 2
557 558 1
557 585 1
558 559 2
558 586 1
559 560 2
559 587 5
560 588 3
561 562 5
561 589 2
562 563 2
562 590 5
563 564 1
563 591 2
564 565 2
564 592 5
565 566 3
565 593 4
566 567 5
566 594 5
567 568 1
567 595 4
568 569 1
568 596 4
569 570 2
569 597 5
570 571 5
570 598 4
571 572 4
571 599 1
572 573 3
572 600 4
573 574 1
573 601 5
574 575 1
574 602 5
575 576 2
575 603 3
576 577 3
576 604 3
577 578 5
577 605 4
578 579 2
578 606 2
579 580 1
579 607 5
580 581 4
580 608 4
581 582 1
581 609 1
582 583 4
582 610 2
583 584 5
583 611 5
584 585 1
584 612 1
585 586 1
585 613 3
586 587 4
586 614 1
587 588 1
587 615 4
588 616 5
589 590 4
589 617 1
590 591 3
590 618 1
591 592 5
591 619 5
592 593 4
592 620 5
593 594 5
593 621 2
594 595 3
594 622 1
595 596 4
595 623 1
596 597 5
596 624 5
597 598 1
597 625 3
598 599 5
598 626 3
599 600 1
599 627 4
600 601 4
600 628 3
601 602 4
601 629 5
602 603 1
602 630 2
603 604 3
603 631 3
604 605 2
604 632 4
605 606 2
605 633 3
606 607 5
606 634 4
607 608 1
607 635 2
608 609 1
608 636 4
609 610 3
609 637 5
610 611 5
610 638 1
611 612 1
611 639 2
612 613 3
612 640 3
613 614 4
613 641 1
614 615 5
614 642 2
615 616 3
615 643 4
616 644 1
617 618 5
617 645 5
618 619 5
618 646 1
619 620 3
619 647 1
620 621 3
620 648 3
621 622 4
621 649 1
622 623 5
622 650 4
623 624 5
623 651 4
624 625 3
624 652 3
625 626 3
625 653 3
626 627 4
626 654 4
627 628 3
627 655 3
628 629 5
628 656 1
629 630 2
629 657 3
630 631 4
630 658 3
631 632 1
631 659 3
632 633 2
632 660 2
633 634 5
633 661 2
634 635 5
634 662 2
635 636 3
635 663 2
636 637 1
636 664 4
637 638 1
637 665 5
638 639 5
638 666 5
639 640 3
639 667 1
640 641 2
640 668 1
641 642 1
641 669 4
642 643 1
642 670 5
643 644 3
643 671 3
644 672 1
645 646 4
645 673 5
646 647 2
646 674 1
647 648 1
647 675 4
648 649 2
648 676 5
649 650 4
649 677 4
650 651 3
650 678 5
651 652 5
651 679 5
652 653 3
652 680 3
653 654 4
653 681 3
654 655 4
654 682 1
655 656 2
655 683 4
656 657 5
656 684 1
657 658 3
657 685 2
658 659 1
658 686 5
659 660 4
659 687 3
660 661 3
660 688 3
661 662 1
661 689 4
662 663 4
662 690 5
663 664 4
663 691 3
664 665 1
664 692 1
665 666 4
665 693 1
666 667 5
666 694 1
667 668 3
667 695 1
668 669 2
668 696 5
669 670 4
669 697 3
670 671 1
670 698 1
671 672 3
671 699 2
672 700 3
673 674 4
673 701 3
674 675 1
674 702 1
675 676 2
675 703 2
676 677 1
676 704 4
677 678 2
677 705 1
678 679 4
678 706 1
679 680 3
679 707 2
680 681 3
680 708 2
681 682 3
681 709 5
682 683 1
682 710 3
683 684 4
683 711 3
684 685 5
684 712 2
685 686 4
685 713 3
686 687 1
686 714 2
687 688 5
687 715 2
688 689 1
688 716 4
689 690 5
689 717 2
690 691 2
690 718 1
691 692 1
691 719 2
692 693 5
692 720 2
693 694 4
693 721 1
694 695 5
694 722 2
695 696 4
695 723 3
696 697 1
696 724 2
697 698 4
697 725 4
698 699 1
698 726 2
699 700 2
699 727 4
700 728 2
701 702 3
701 729 4
702 703 3
702 730 1
703 704 1
703 731 4
704 705 4
704 732 1
705 706 4
705 733 1
706 707 1
706 734 5
707 708 1
707 735 4
708 709 4
708 736 4
709 710 2
709 737 4
710 711 4
710 738 2
711 712 1
711 739 5
712 713 4
712 740 2
713 714 2
713 741 3
714 715 5
714 742 1
715 716 2
715 743 3
716 717 5
716 744 1
717 718 3
717 745 3
718 719 2
718 746 2
719 720 5
719 747 1
720 721 4
720 748 5
721 722 5
721 749 1
722 723 3
722 750 2
723 724 3
723 751 1
724 725 2
724 752 2
725 726 4
725 753 3
726 727 2
726 754 3
727 728 2
727 755 3
728 756 4
729 730 4
729 757 3
730 731 5
730 758 1
731 732 3
731 759 3
732 733 5
732 760 1
733 734 1
733 761 2
734 735 4
734 762 1
735 736 4
735 763 2
736 737 5
736 764 2
737 738 1
737 765 2
738 739 2
738 766 2
739 740 4
739 767 2
740 741 4
740 768 4
741 742 4
741 769 2
742 743 1
742 770 4
743 744 3
743 771 5
744 745 1
744 772 4
745 746 3
745 773 4
746 747 1
746 774 4
747 748 4
747 775 5
748 749 1
748 776 1
749 750 5
749 777 1
750 751 2
750 778 4
751 752 3
751 779 5
752 753 1
752 780 2
753 754 1
753 781 1
754 755 2
754 782 5
755 756 3
755 783 1
756 784 1
757 758 5
758 759 2
759 760 2
760 761 2
761 762 2
762 763 2
763 764 3
764 765 4
765 766 2
766 767 2
767 768 2
768 769 3
769 770 1
770 771 2
771 772 2
772 773 5
773 774 1
774 775 2
775 776 1
776 777 2
777 778 2
778 779 5
779 780 2
780 781 4
781 782 3
782 783 5
783 784 4
